seed= 2052018 ;
N= 14 ;
M= 2 ;
F= 2 ;
K= 3 ;
T= 66 ;

p=[ 4 4 4 4 4 4 4 16 16 16 16 16 16 16 ];
r=[ 4 10 9 3 18 1 13 1 6 11 3 12 3 11 ];
d=[ 20 31 11 25 13 4 25 4 28 12 5 19 14 30 ];
s=[ 1 1 1 1 1 1 1 1 1 1 1 1 1 1 ];
w=[ 1 2 2 4 1 5 3 2 4 5 1 3 1 4 ];
f=[ 1 1 1 1 1 1 1 2 2 2 2 2 2 2 ];

e1=[ 10 10 10 10 10 10 10 10 10 10 10 10 10 10 10 10 10 10 10 10 10 10 10 10 10 10 10 10 10 10 10 10 10 8 8 8 8 8 8 8 8 8 8 8 8 8 8 8 8 8 8 8 8 8 8 8 8 8 8 8 8 8 8 8 8 8 ];
e2=[ 10 10 10 10 10 10 10 10 10 10 10 10 10 10 10 10 10 10 10 10 10 10 9 9 9 9 9 9 9 9 9 9 9 8 8 8 8 8 8 8 8 8 8 8 8 8 8 8 8 8 8 8 8 8 8 9 9 9 9 9 9 9 9 9 9 9 ];